(set-info :smt-lib-version 2.6)
(set-logic QF_SLIA)
(set-info :source |
Generated by: Dmitry Blotsky1, Federico Mora, Murphy Berzish, Yunhui Zheng, Ifaz Kabir, Vijay Ganesh, Zhengyang Lu
Generated on: 2018-01-24
Generator: StringFuzz
Application: Evaluate string solvers
Target solver: Z3str3, CVC4, Z3str2, Norn
Publications: Blotsky, D., Mora, F., Berzish, M., Zheng, Y., Kabir, I., & Ganesh, V. (2018). Stringfuzz: A fuzzer for string solvers. In CAV 2018.
Description: new instance generated by StringFuzz, a modular string and regex fuzzer
|)
(set-info :license "https://creativecommons.org/licenses/by/4.0/")
(set-info :category "random")
(set-info :status unknown)

(declare-fun var0 () String)
(assert (str.in_re var0 (re.++ (re.* (re.* (str.to_re "0"))) (re.++ (re.* (re.+ (str.to_re "1"))) (re.++ (re.+ (re.* (str.to_re "2"))) (re.++ (re.+ (re.* (str.to_re "3"))) (re.++ (re.+ (re.+ (str.to_re "4"))) (re.++ (re.+ (re.union (str.to_re "55") (str.to_re "66"))) (re.++ (re.union (re.union (str.to_re "7") (str.to_re "888")) (re.* (str.to_re "9"))) (re.++ (re.union (re.* (str.to_re "aa")) (re.+ (str.to_re "b"))) (re.++ (re.union (re.* (str.to_re "ccc")) (re.+ (str.to_re "dd"))) (re.++ (re.union (re.+ (str.to_re "eee")) (re.+ (str.to_re "f"))) (re.++ (re.+ (re.* (str.to_re "g"))) (re.++ (re.+ (re.* (str.to_re "h"))) (re.++ (re.union (re.+ (str.to_re "ii")) (re.* (str.to_re "j"))) (re.++ (re.* (re.* (str.to_re "kkk"))) (re.++ (re.union (re.union (str.to_re "lll") (str.to_re "mmm")) (re.+ (str.to_re "n"))) (re.++ (re.* (re.* (str.to_re "o"))) (re.++ (re.+ (re.union (str.to_re "pp") (str.to_re "qqq"))) (re.++ (re.union (re.+ (str.to_re "rrr")) (re.+ (str.to_re "s"))) (re.++ (re.union (re.* (str.to_re "ttt")) (re.union (str.to_re "uu") (str.to_re "vv"))) (re.++ (re.* (re.union (str.to_re "www") (str.to_re "x"))) (re.++ (re.union (re.+ (str.to_re "y")) (re.+ (str.to_re "zz"))) (re.++ (re.+ (re.union (str.to_re "A") (str.to_re "BB"))) (re.++ (re.* (re.* (str.to_re "C"))) (re.++ (re.+ (re.union (str.to_re "DD") (str.to_re "E"))) (re.union (re.* (str.to_re "FFF")) (re.+ (str.to_re "G")))))))))))))))))))))))))))))
(check-sat)
(exit)
